c Random generated cnf formula, satisfiable: false
p cnf 10 50
-9 -2 3 0
4 -8 -7 0
-6 1 -4 0
-8 -7 -6 0
7 -8 2 0
-2 -5 8 0
-3 2 1 0
1 3 5 0
-9 -8 1 0
4 -2 -5 0
-9 -1 2 0
-5 6 -2 0
8 -10 -7 0
1 7 10 0
-2 -1 -10 0
-7 4 9 0
10 6 7 0
-7 1 10 0
4 -1 -6 0
-4 3 -2 0
-5 10 3 0
3 6 -1 0
7 -8 1 0
7 8 6 0
2 8 4 0
4 5 7 0
3 -1 2 0
-8 7 -9 0
-4 6 2 0
-4 -10 3 0
-8 -7 -3 0
-4 10 2 0
4 -1 -9 0
-7 -5 6 0
-1 3 -10 0
-6 -3 10 0
8 -4 5 0
-8 6 -5 0
7 8 9 0
-4 10 9 0
-2 -5 -3 0
-8 3 -10 0
9 -7 5 0
7 1 6 0
9 8 -4 0
-6 -7 9 0
7 1 2 0
3 -10 -4 0
-7 -4 10 0
4 8 -6 0
